<number of tasks>
35

<cycle time>
49

<task times>
1 29
2 3
3 5
4 22
5 6
6 14
7 2
8 5
9 22
10 30
11 23
12 30
13 23
14 2
15 19
16 29
17 2
18 2
19 19
20 29
21 6
22 10
23 16
24 23
25 5
26 5
27 5
28 40
29 2
30 5
31 5
32 1
33 40
34 2
35 2

<precedence relations>
1,2
1,5
1,10
1,12
2,3
3,4
4,11
5,6
6,7
6,8
7,14
7,18
8,9
9,13
10,14
11,28
11,33
12,18
13,28
13,33
14,15
15,16
16,21
17,20
18,19
19,20
20,21
21,22
21,25
21,30
22,23
23,24
24,27
25,26
26,27
27,28
27,33
27,34
28,29
30,31
31,32
32,33
33,35

<setup times forward>
1,2:5
1,10:5
1,12:2
1,17:5
2,5:5
2,6:5
2,9:3
2,12:7
2,13:4
2,14:4
2,15:8
2,16:8
2,18:4
2,19:5
2,20:5
2,21:9
2,22:2
2,23:2
2,24:2
2,25:9
2,26:9
2,27:7
2,30:9
2,31:9
2,32:11
2,34:11
3,4:4
3,5:5
3,6:5
3,9:3
3,12:7
3,13:4
3,14:4
3,15:8
3,16:8
3,18:4
3,19:5
3,20:5
3,21:9
3,22:2
3,23:2
3,24:2
3,25:9
3,26:9
3,27:7
3,30:9
3,31:9
3,32:11
3,34:11
4,5:1
4,6:1
4,7:4
4,8:4
4,9:1
4,10:4
4,11:5
4,12:3
4,15:4
4,16:4
4,17:4
4,19:1
4,20:1
4,21:5
4,22:2
4,23:2
4,24:2
4,25:5
4,26:5
4,27:3
4,30:5
4,31:5
4,32:7
4,34:7
5,2:5
5,3:5
5,4:1
5,10:5
5,11:4
5,12:2
5,17:5
6,2:5
6,3:5
6,4:1
6,7:5
6,8:5
6,10:5
6,11:4
6,12:2
6,17:5
7,4:4
7,9:3
7,11:9
7,12:7
7,13:4
7,14:4
7,18:4
8,4:4
8,9:3
8,11:9
8,12:7
8,14:4
8,15:8
8,16:8
8,18:4
8,19:5
8,20:5
8,21:9
8,22:2
8,23:2
8,24:2
8,25:9
8,26:9
8,27:7
8,30:9
8,31:9
8,32:11
8,34:11
9,2:3
9,3:3
9,4:1
9,7:3
9,10:3
9,11:6
9,12:4
9,13:1
9,14:1
9,15:5
9,16:5
9,17:3
9,18:1
9,19:2
9,20:2
9,21:6
9,22:1
9,23:1
9,24:1
9,25:6
9,26:6
9,27:4
9,30:6
9,31:6
9,32:8
9,34:8
10,4:4
10,5:5
10,6:5
10,9:3
10,11:9
10,12:7
10,13:4
10,14:4
10,18:4
10,19:5
10,20:5
11,5:4
11,6:4
11,7:9
11,8:9
11,9:6
11,10:9
11,12:2
11,13:5
11,14:5
11,15:1
11,16:1
11,17:9
11,18:5
11,19:4
11,20:4
11,22:7
11,23:7
11,24:7
11,27:2
11,28:2
11,32:2
11,33:2
11,34:2
12,2:7
12,3:7
12,4:3
12,5:2
12,6:2
12,7:7
12,8:7
12,9:4
12,10:7
12,11:2
12,13:3
12,14:3
12,15:1
12,16:1
12,17:7
12,18:3
13,2:4
13,3:4
13,7:4
13,10:4
13,11:5
13,12:3
13,15:4
13,16:4
13,17:4
13,19:1
13,20:1
13,21:5
13,22:2
13,23:2
13,24:2
13,25:5
13,26:5
13,27:3
13,28:3
13,30:5
13,31:5
13,32:7
13,33:7
13,34:7
14,2:4
14,3:4
14,8:4
14,9:1
14,11:5
14,12:3
14,15:4
14,17:4
14,19:1
14,20:1
15,2:8
15,3:8
15,4:4
15,8:8
15,9:5
15,11:1
15,12:1
15,13:4
15,17:8
15,18:4
15,19:3
15,20:3
16,2:8
16,3:8
16,4:4
16,8:8
16,9:5
16,11:1
16,12:1
16,13:4
16,17:8
16,18:4
16,19:3
16,20:3
16,21:1
17,1:5
17,4:4
17,5:5
17,6:5
17,9:3
17,11:9
17,12:7
17,13:4
17,14:4
17,15:8
17,16:8
17,18:4
17,19:5
17,20:5
18,2:4
18,3:4
18,8:4
18,9:1
18,10:4
18,11:5
18,15:4
18,16:4
18,17:4
18,19:1
19,2:5
19,3:5
19,4:1
19,8:5
19,9:2
19,10:5
19,11:4
19,13:1
19,14:1
19,15:3
19,16:3
19,17:5
20,2:5
20,3:5
20,4:1
20,8:5
20,9:2
20,10:5
20,11:4
20,13:1
20,14:1
20,15:3
20,16:3
20,21:4
21,2:9
21,3:9
21,4:5
21,8:9
21,9:6
21,13:5
21,22:7
22,2:2
22,3:2
22,4:2
22,8:2
22,9:1
22,11:7
22,13:2
22,25:7
22,26:7
22,30:7
22,31:7
22,32:9
23,2:2
23,3:2
23,4:2
23,8:2
23,9:1
23,11:7
23,13:2
23,25:7
23,26:7
23,30:7
23,31:7
23,32:9
24,2:2
24,3:2
24,4:2
24,8:2
24,9:1
24,11:7
24,13:2
24,25:7
24,26:7
24,27:5
24,30:7
24,31:7
24,32:9
25,2:9
25,3:9
25,4:5
25,8:9
25,9:6
25,13:5
25,22:7
25,23:7
25,24:7
25,32:2
26,2:9
26,3:9
26,4:5
26,8:9
26,9:6
26,13:5
26,22:7
26,23:7
26,24:7
26,27:2
26,32:2
27,2:7
27,3:7
27,4:3
27,8:7
27,9:4
27,11:2
27,13:3
27,30:2
27,31:2
27,32:4
27,33:4
27,34:4
28,29:4
28,30:2
28,31:2
28,32:4
28,33:4
28,34:4
28,35:4
29,30:2
29,31:2
30,2:9
30,3:9
30,4:5
30,8:9
30,9:6
30,13:5
30,22:7
30,23:7
30,24:7
30,27:2
30,28:2
30,29:2
30,34:2
31,2:9
31,3:9
31,4:5
31,8:9
31,9:6
31,13:5
31,22:7
31,23:7
31,24:7
31,27:2
31,28:2
31,29:2
31,32:2
31,34:2
32,2:11
32,3:11
32,4:7
32,8:11
32,9:8
32,11:2
32,13:7
32,22:9
32,23:9
32,24:9
32,25:2
32,26:2
32,27:4
32,28:4
33,28:4
34,2:11
34,3:11
34,4:7
34,8:11
34,9:8
34,11:2
34,13:7
34,28:4
34,30:2
34,31:2
35,28:4

<setup times backward>
2,1:5
2,5:5
2,6:5
2,9:3
2,12:7
2,13:4
2,14:4
2,15:8
2,16:8
2,18:4
2,19:5
2,20:5
2,21:9
2,22:2
2,23:2
2,24:2
2,25:9
2,26:9
2,27:7
2,30:9
2,31:9
2,32:11
2,34:11
3,1:5
3,5:5
3,6:5
3,9:3
3,12:7
3,13:4
3,14:4
3,15:8
3,16:8
3,18:4
3,19:5
3,20:5
3,21:9
3,22:2
3,23:2
3,24:2
3,25:9
3,26:9
3,27:7
3,30:9
3,31:9
3,32:11
3,34:11
4,1:1
4,5:1
4,6:1
4,12:3
4,15:4
4,16:4
4,19:1
4,20:1
4,21:5
4,25:5
4,26:5
4,27:3
4,30:5
4,31:5
4,32:7
4,34:7
5,11:4
5,12:2
6,11:4
6,12:2
7,1:5
7,4:4
7,5:5
7,6:5
7,9:3
7,11:9
7,12:7
7,13:4
8,1:5
8,4:4
8,5:5
8,6:5
8,11:9
8,12:7
8,14:4
8,15:8
8,16:8
8,18:4
8,19:5
8,20:5
8,21:9
8,22:2
8,23:2
8,24:2
8,25:9
8,26:9
8,27:7
8,30:9
8,31:9
8,32:11
8,34:11
9,1:2
9,4:1
9,5:2
9,6:2
9,11:6
9,12:4
9,14:1
9,15:5
9,16:5
9,18:1
9,19:2
9,20:2
9,21:6
9,25:6
9,26:6
9,27:4
9,30:6
9,31:6
9,32:8
9,34:8
10,1:5
10,4:4
10,5:5
10,6:5
10,9:3
10,11:9
10,12:7
10,13:4
10,18:4
10,19:5
10,20:5
11,32:2
11,34:2
12,11:2
12,15:1
12,16:1
13,1:1
13,5:1
13,6:1
13,11:5
13,12:3
13,15:4
13,16:4
13,19:1
13,20:1
13,21:5
13,25:5
13,26:5
13,27:3
13,30:5
13,31:5
13,32:7
13,34:7
14,1:1
14,5:1
14,6:1
14,11:5
14,12:3
14,19:1
14,20:1
15,11:1
16,11:1
17,1:5
17,4:4
17,5:5
17,6:5
17,9:3
17,11:9
17,12:7
17,13:4
17,14:4
17,15:8
17,16:8
17,18:4
17,19:5
18,1:1
18,5:1
18,6:1
18,11:5
18,12:3
18,15:4
18,16:4
19,11:4
19,12:2
19,15:3
19,16:3
20,11:4
20,12:2
20,15:3
20,16:3
22,1:3
22,4:2
22,5:3
22,6:3
22,9:1
22,11:7
22,12:5
22,13:2
22,14:2
22,15:6
22,16:6
22,18:2
22,19:3
22,20:3
22,21:7
22,25:7
22,26:7
22,30:7
22,31:7
22,32:9
23,1:3
23,4:2
23,5:3
23,6:3
23,9:1
23,11:7
23,12:5
23,13:2
23,14:2
23,15:6
23,16:6
23,18:2
23,19:3
23,20:3
23,21:7
23,25:7
23,26:7
23,30:7
23,31:7
23,32:9
24,1:3
24,4:2
24,5:3
24,6:3
24,9:1
24,11:7
24,12:5
24,13:2
24,14:2
24,15:6
24,16:6
24,18:2
24,19:3
24,20:3
24,21:7
24,25:7
24,26:7
24,30:7
24,31:7
24,32:9
25,32:2
26,32:2
27,11:2
27,15:1
27,16:1
27,21:2
27,25:2
27,26:2
27,30:2
27,31:2
27,32:4
28,11:2
28,15:1
28,16:1
28,21:2
28,25:2
28,26:2
28,30:2
28,31:2
28,32:4
28,33:4
28,34:4
28,35:4
30,29:2
30,34:2
31,29:2
31,34:2

<end>

<optimal SALBP-1 value>
11


<rand seed>
467321153

<Lower Bounds>
Lm1=10
Lms1=10
Lm2=7
Lm3=8
Lm4=10
Best=10

<Optimal Stations (Iterations: 10)>
13
